NAME : X-n120-k6
COMMENT : "Generated by Uchoa, Pecin, Pessoa, Poggi, Subramanian, and Vidal (2013)"
TYPE : CVRP
DIMENSION : 120
EDGE_WEIGHT_TYPE : EUC_2D
CAPACITY : 21
NODE_COORD_SECTION
1 0 0
2 927 318
3 319 475
4 471 281
5 894 615
6 712 832
7 677 210
8 336 967
9 490 360
10 367 685
11 153 169
12 799 63
13 247 455
14 492 585
15 131 701
16 309 721
17 210 256
18 511 753
19 447 796
20 394 856
21 131 13
22 181 425
23 892 585
24 161 651
25 964 365
26 82 353
27 706 842
28 793 53
29 364 841
30 126 306
31 86 477
32 51 277
33 192 360
34 52 568
35 682 45
36 778 300
37 10 737
38 928 438
39 95 240
40 391 368
41 586 170
42 645 731
43 381 396
44 387 491
45 388 753
46 429 276
47 547 989
48 840 945
49 88 969
50 331 421
51 55 132
52 904 771
53 63 190
54 731 528
55 320 84
56 308 276
57 891 182
58 836 473
59 209 741
60 864 533
61 852 600
62 180 150
63 544 140
64 956 881
65 432 487
66 129 968
67 597 962
68 51 423
69 827 605
70 776 619
71 354 297
72 311 129
73 552 106
74 24 318
75 148 944
76 502 869
77 396 492
78 815 500
79 425 338
80 178 511
81 168 274
82 775 603
83 481 465
84 281 777
85 216 211
86 784 740
87 127 992
88 544 117
89 92 170
90 846 755
91 614 326
92 180 372
93 720 252
94 262 291
95 171 186
96 868 613
97 291 119
98 427 974
99 481 557
100 403 645
101 819 502
102 915 919
103 581 85
104 527 743
105 953 893
106 955 912
107 269 924
108 216 84
109 601 952
110 441 439
111 170 949
112 614 92
113 439 212
114 413 509
115 545 336
116 50 806
117 166 86
118 658 870
119 122 511
120 178 170
PICKUP_AND_DELIVERY_SECTION
1 0 0 1000000000 0 0 0
2 0 0 1000000000 0 0.343 0.657
3 0 0 1000000000 0 0.6716 0.3284
4 0 0 1000000000 0 0.5966 0.4034
5 0 0 1000000000 0 0.6879 0.3121
6 0 0 1000000000 0 0.8558 0.1442
7 0 0 1000000000 0 0.3102 0.6898
8 0 0 1000000000 0 0.3475 0.6525
9 0 0 1000000000 0 0.7347 0.2653
10 0 0 1000000000 0 0.5358 0.4642
11 0 0 1000000000 0 0.9053 0.09467
12 0 0 1000000000 0 0.07885 0.9212
13 0 0 1000000000 0 0.5429 0.4571
14 0 0 1000000000 0 0.841 0.159
15 0 0 1000000000 0 0.1869 0.8131
16 0 0 1000000000 0 0.4286 0.5714
17 0 0 1000000000 0 0.8203 0.1797
18 0 0 1000000000 0 0.6786 0.3214
19 0 0 1000000000 0 0.5616 0.4384
20 0 0 1000000000 0 0.4603 0.5397
21 0 0 1000000000 0 0.09924 0.9008
22 0 0 1000000000 0 0.4259 0.5741
23 0 0 1000000000 0 0.6558 0.3442
24 0 0 1000000000 0 0.2473 0.7527
25 0 0 1000000000 0 0.3786 0.6214
26 0 0 1000000000 0 0.2323 0.7677
27 0 0 1000000000 0 0.8385 0.1615
28 0 0 1000000000 0 0.06683 0.9332
29 0 0 1000000000 0 0.4328 0.5672
30 0 0 1000000000 0 0.4118 0.5882
31 0 0 1000000000 0 0.1803 0.8197
32 0 0 1000000000 0 0.1841 0.8159
33 0 0 1000000000 0 0.5333 0.4667
34 0 0 1000000000 0 0.09155 0.9085
35 0 0 1000000000 0 0.06598 0.934
36 0 0 1000000000 0 0.3856 0.6144
37 0 0 1000000000 0 0.01357 0.9864
38 0 0 1000000000 0 0.472 0.528
39 0 0 1000000000 0 0.3958 0.6042
40 0 0 1000000000 0 0.9412 0.05882
41 0 0 1000000000 0 0.2901 0.7099
42 0 0 1000000000 0 0.8824 0.1176
43 0 0 1000000000 0 0.9621 0.03788
44 0 0 1000000000 0 0.7882 0.2118
45 0 0 1000000000 0 0.5153 0.4847
46 0 0 1000000000 0 0.6434 0.3566
47 0 0 1000000000 0 0.5531 0.4469
48 0 0 1000000000 0 0.8889 0.1111
49 0 0 1000000000 0 0.09082 0.9092
50 0 0 1000000000 0 0.7862 0.2138
51 0 0 1000000000 0 0.4167 0.5833
52 0 0 1000000000 0 0.8529 0.1471
53 0 0 1000000000 0 0.3316 0.6684
54 0 0 1000000000 0 0.7223 0.2777
55 0 0 1000000000 0 0.2625 0.7375
56 0 0 1000000000 0 0.8961 0.1039
57 0 0 1000000000 0 0.2043 0.7957
58 0 0 1000000000 0 0.5658 0.4342
59 0 0 1000000000 0 0.2821 0.7179
60 0 0 1000000000 0 0.6169 0.3831
61 0 0 1000000000 0 0.7042 0.2958
62 0 0 1000000000 0 0.8333 0.1667
63 0 0 1000000000 0 0.2574 0.7426
64 0 0 1000000000 0 0.9215 0.07845
65 0 0 1000000000 0 0.8871 0.1129
66 0 0 1000000000 0 0.1333 0.8667
67 0 0 1000000000 0 0.6206 0.3794
68 0 0 1000000000 0 0.1206 0.8794
69 0 0 1000000000 0 0.7316 0.2684
70 0 0 1000000000 0 0.7977 0.2023
71 0 0 1000000000 0 0.839 0.161
72 0 0 1000000000 0 0.4148 0.5852
73 0 0 1000000000 0 0.192 0.808
74 0 0 1000000000 0 0.07547 0.9245
75 0 0 1000000000 0 0.1568 0.8432
76 0 0 1000000000 0 0.5777 0.4223
77 0 0 1000000000 0 0.8049 0.1951
78 0 0 1000000000 0 0.6135 0.3865
79 0 0 1000000000 0 0.7953 0.2047
80 0 0 1000000000 0 0.3483 0.6517
81 0 0 1000000000 0 0.6131 0.3869
82 0 0 1000000000 0 0.7781 0.2219
83 0 0 1000000000 0 0.9667 0.03326
84 0 0 1000000000 0 0.3616 0.6384
85 0 0 1000000000 0 0.9769 0.02315
86 0 0 1000000000 0 0.9439 0.05612
87 0 0 1000000000 0 0.128 0.872
88 0 0 1000000000 0 0.2151 0.7849
89 0 0 1000000000 0 0.5412 0.4588
90 0 0 1000000000 0 0.8924 0.1076
91 0 0 1000000000 0 0.5309 0.4691
92 0 0 1000000000 0 0.4839 0.5161
93 0 0 1000000000 0 0.35 0.65
94 0 0 1000000000 0 0.9003 0.09966
95 0 0 1000000000 0 0.9194 0.08065
96 0 0 1000000000 0 0.7062 0.2938
97 0 0 1000000000 0 0.4089 0.5911
98 0 0 1000000000 0 0.4384 0.5616
99 0 0 1000000000 0 0.8636 0.1364
100 0 0 1000000000 0 0.6248 0.3752
101 0 0 1000000000 0 0.6129 0.3871
102 0 0 1000000000 0 0.9956 0.00435
103 0 0 1000000000 0 0.1463 0.8537
104 0 0 1000000000 0 0.7093 0.2907
105 0 0 1000000000 0 0.937 0.06296
106 0 0 1000000000 0 0.955 0.04503
107 0 0 1000000000 0 0.2911 0.7089
108 0 0 1000000000 0 0.3889 0.6111
109 0 0 1000000000 0 0.6313 0.3687
110 0 0 1000000000 0 0.9955 0.00454
111 0 0 1000000000 0 0.1791 0.8209
112 0 0 1000000000 0 0.1498 0.8502
113 0 0 1000000000 0 0.4829 0.5171
114 0 0 1000000000 0 0.8114 0.1886
115 0 0 1000000000 0 0.6165 0.3835
116 0 0 1000000000 0 0.06203 0.938
117 0 0 1000000000 0 0.5181 0.4819
118 0 0 1000000000 0 0.7563 0.2437
119 0 0 1000000000 0 0.2387 0.7613
120 0 0 1000000000 0 0.9551 0.04494
